
Gurobi 12.0.2 (win64) logging started Mon Nov 10 20:24:45 2025

Set parameter LogFile to value "C:\Ioana\_uni\honours\slp\algorithm\Main_files\results\respiration_paracetamol\Task_002_Sample001_irr_gurobi.log"
Gurobi Optimizer version 12.0.2 build v12.0.2rc0 (win64 - Windows 11.0 (26100.2))

CPU model: Intel(R) Core(TM) Ultra 5 125H, instruction set [SSE2|AVX|AVX2]
Thread count: 14 physical cores, 18 logical processors, using up to 18 threads

Non-default parameters:
TimeLimit  2200

Optimize a model with 47236 rows, 34507 columns and 146717 nonzeros
Model fingerprint: 0xe851b227
Variable types: 17258 continuous, 17249 integer (17249 binary)
Coefficient statistics:
  Matrix range     [1e-04, 8e+04]
  Objective range  [1e-04, 1e+01]
  Bounds range     [1e+00, 1e+03]
  RHS range        [1e+00, 1e+00]
Presolve removed 30831 rows and 21554 columns
Presolve time: 0.34s
Presolved: 16405 rows, 12953 columns, 54584 nonzeros
Variable types: 6409 continuous, 6544 integer (6544 binary)

Root relaxation: objective 1.516818e-04, 692 iterations, 0.03 seconds (0.05 work units)

    Nodes    |    Current Node    |     Objective Bounds      |     Work
 Expl Unexpl |  Obj  Depth IntInf | Incumbent    BestBd   Gap | It/Node Time

     0     0    0.00015    0   11          -    0.00015      -     -    0s
H    0     0                       0.1197021    0.00015   100%     -    0s
H    0     0                       0.1060542    0.00015   100%     -    0s
     0     0    0.03412    0   17    0.10605    0.03412  67.8%     -    0s
     0     0    0.03412    0   10    0.10605    0.03412  67.8%     -    0s
     0     0    0.08076    0   14    0.10605    0.08076  23.8%     -    1s
     0     0    0.08100    0   14    0.10605    0.08100  23.6%     -    1s
     0     0    0.10345    0    5    0.10605    0.10345  2.46%     -    1s

Cutting planes:
  Cover: 4
  MIR: 17
  Flow cover: 15
  Flow path: 10
  Relax-and-lift: 1

Explored 1 nodes (2817 simplex iterations) in 1.14 seconds (1.08 work units)
Thread count was 18 (of 18 available processors)

Solution count 2: 0.106054 0.119702 

Optimal solution found (tolerance 1.00e-04)
Best objective 1.060542362984e-01, best bound 1.060542361937e-01, gap 0.0000%
